Route #1: 5 162 168 29 150 106 81 75 78 134 83 51 136 95
Route #2: 26 67 42 86 53 154 170 181 43 41 38 111 60
Route #3: 2 107 69 159 9 183 182 30 93 28 172 68 155 58 176 13
Route #4: 145 87 101 96 174 178 113 1 90 7 31 15 37 22 88
Route #5: 129 12 74 128 82 97 102 151 122 139 39 91 45 175 108
Route #6: 14 158 166 153 143 8 119 33 140 49 126 173 85 171
Route #7: 77 184 71 99 84 27 89 98 66 20 112 54 94 11 180 135 35 19 16
Route #8: 47 123 120 125 137 169 146 76 46 57 62 56 167 141 127 59 152 124
Route #9: 114 142 156 79 161 3 149 110 80 17 157 61 36 118 115 100 52 164
Route #10: 73 117 132 34 165 148 63 70 179 48 55 147 21 138 44 92 50 65 64 177 104 4 24
Route #11: 130 185 131 10 6 133 160 25 109 105 23 32 144 163 103 116 18 40 121 72
Cost 19837.000000